# Photo problem 3
# Data from 
# http://www.ampl.com/NEW/LOGIC/EXAMPLES/photo9.dat
set PERSONS = 1 2 3 4 5 6 7 8 9;
param n := 9;
param preferences: 
    1 2 3 4 5 6 7 8 9 := 
 1  0 0 1 0 1 0 0 1 0
 2  0 0 0 0 1 0 0 0 1
 3  0 0 0 1 1 0 0 0 0
 4  1 0 0 0 1 0 0 0 0
 5  1 0 0 0 0 1 0 0 0
 6  1 0 0 0 0 0 0 0 1
 7  0 0 1 0 0 0 0 1 0
 8  0 0 0 0 0 0 1 0 1
 9  0 0 0 0 0 0 0 0 0
;
